Tried aggregator 2 times.
MIP Presolve eliminated 1301 rows and 153 columns.
MIP Presolve modified 296 coefficients.
Aggregator did 34 substitutions.
Reduced MIP has 218 rows, 95 columns, and 654 nonzeros.
Reduced MIP has 88 binaries, 0 generals, 0 SOSs, and 0 indicators.
Presolve time = 0.00 sec. (1.61 ticks)
Found incumbent of value 8.000000 after 0.00 sec. (2.22 ticks)
Probing fixed 18 vars, tightened 0 bounds.
Probing time = 0.00 sec. (0.46 ticks)
Cover probing fixed 0 vars, tightened 27 bounds.
Tried aggregator 1 time.
MIP Presolve eliminated 90 rows and 37 columns.
MIP Presolve modified 59 coefficients.
Reduced MIP has 128 rows, 58 columns, and 357 nonzeros.
Reduced MIP has 51 binaries, 0 generals, 0 SOSs, and 0 indicators.
Presolve time = 0.00 sec. (0.21 ticks)
Probing time = 0.00 sec. (0.20 ticks)
Clique table members: 383.
MIP emphasis: balance optimality and feasibility.
MIP search method: dynamic search.
Parallel mode: deterministic, using up to 8 threads.
Root relaxation solution time = 0.00 sec. (0.12 ticks)

        Nodes                                         Cuts/
   Node  Left     Objective  IInf  Best Integer    Best Bound    ItCnt     Gap

*     0+    0                            8.0000        6.0000        1   25.00%
*     0+    0                            6.0000        6.0000        1    0.00%
      0     0        cutoff              6.0000        6.0000        1    0.00%

Root node processing (before b&c):
  Real time             =    0.00 sec. (0.51 ticks)
Parallel b&c, 8 threads:
  Real time             =    0.00 sec. (0.00 ticks)
  Sync time (average)   =    0.00 sec.
  Wait time (average)   =    0.00 sec.
                          ------------
Total (root+branch&cut) =    0.00 sec. (0.51 ticks)
Status: Optimal
Schedule    [100, 0, 1, 2, 3, 4, 5, 6]
Mix-Module 1    [1, 1, 1, 1, 1, 1, 1]
